[VALIDATOR STDOUT]
Type-checking pick-package
...action passes type checking.
Type-checking drop-package
...action passes type checking.
Type-checking move
...action passes type checking.
Checking plan: /home/jfan5/Safety-gen/runs/benchmark/optic/delivery_20260215_225923/delivery/optic_results/delivery_size21_packages1_seed21001.plan
Plan to validate:

Plan size: 127
1:
(move t1 c_14_17 c_14_16)
 
2:
(move t1 c_14_16 c_15_16)
 
3:
(move t1 c_15_16 c_16_16)
 
4:
(move t1 c_16_16 c_16_15)
 
5:
(move t1 c_16_15 c_17_15)
 
6:
(move t1 c_17_15 c_18_15)
 
7:
(pick-package t1 p1 c_18_15)
 
8:
(move t1 c_18_15 c_17_15)
 
9:
(move t1 c_17_15 c_16_15)
 
10:
(move t1 c_16_15 c_16_14)
 
11:
(move t1 c_16_14 c_16_13)
 
12:
(move t1 c_16_13 c_16_12)
 
13:
(move t1 c_16_12 c_16_11)
 
14:
(move t1 c_16_11 c_16_10)
 
15:
(move t1 c_16_10 c_16_9)
 
16:
(move t1 c_16_9 c_15_9)
 
17:
(move t1 c_15_9 c_14_9)
 
18:
(move t1 c_14_9 c_13_9)
 
19:
(move t1 c_13_9 c_12_9)
 
20:
(move t1 c_12_9 c_11_9)
 
21:
(drop-package t1 p1 c_11_9)
 
22:
(move t1 c_11_9 c_11_8)
 
23:
(move t1 c_11_8 c_11_7)
 
24:
(move t1 c_11_7 c_11_6)
 
25:
(move t1 c_11_6 c_11_5)
 
26:
(move t1 c_11_5 c_11_4)
 
27:
(move t1 c_11_4 c_11_3)
 
28:
(pick-package t1 p3 c_11_3)
 
29:
(move t1 c_11_3 c_11_4)
 
30:
(move t1 c_11_4 c_11_5)
 
31:
(move t1 c_11_5 c_11_6)
 
32:
(move t1 c_11_6 c_11_7)
 
33:
(move t1 c_11_7 c_11_8)
 
34:
(move t1 c_11_8 c_11_9)
 
35:
(move t1 c_11_9 c_12_9)
 
36:
(move t1 c_12_9 c_13_9)
 
37:
(move t1 c_13_9 c_14_9)
 
38:
(move t1 c_14_9 c_15_9)
 
39:
(move t1 c_15_9 c_16_9)
 
40:
(drop-package t1 p3 c_16_9)
 
41:
(move t1 c_16_9 c_15_9)
 
42:
(move t1 c_15_9 c_14_9)
 
43:
(move t1 c_14_9 c_13_9)
 
44:
(move t1 c_13_9 c_12_9)
 
45:
(move t1 c_12_9 c_11_9)
 
46:
(pick-package t1 p1 c_11_9)
 
47:
(move t1 c_11_9 c_12_9)
 
48:
(move t1 c_12_9 c_13_9)
 
49:
(move t1 c_13_9 c_14_9)
 
50:
(move t1 c_14_9 c_15_9)
 
51:
(move t1 c_15_9 c_16_9)
 
52:
(move t1 c_16_9 c_16_10)
 
53:
(drop-package t1 p1 c_16_10)
 
54:
(move t1 c_16_10 c_16_9)
 
55:
(pick-package t1 p3 c_16_9)
 
56:
(move t1 c_16_9 c_16_10)
 
57:
(drop-package t1 p3 c_16_10)
 
58:
(move t1 c_16_10 c_16_9)
 
59:
(pick-package t1 p2 c_16_9)
 
60:
(move t1 c_16_9 c_16_10)
 
61:
(move t1 c_16_10 c_16_11)
 
62:
(drop-package t1 p2 c_16_11)
 
63:
(move t1 c_16_11 c_16_10)
 
64:
(pick-package t1 p3 c_16_10)
 
65:
(move t1 c_16_10 c_16_11)
 
66:
(drop-package t1 p3 c_16_11)
 
67:
(move t1 c_16_11 c_16_10)
 
68:
(pick-package t1 p1 c_16_10)
 
69:
(move t1 c_16_10 c_16_11)
 
70:
(move t1 c_16_11 c_16_12)
 
71:
(move t1 c_16_12 c_16_13)
 
72:
(move t1 c_16_13 c_16_14)
 
73:
(move t1 c_16_14 c_16_15)
 
74:
(move t1 c_16_15 c_16_16)
 
75:
(move t1 c_16_16 c_17_16)
 
76:
(move t1 c_17_16 c_18_16)
 
77:
(move t1 c_18_16 c_19_16)
 
78:
(move t1 c_19_16 c_20_16)
 
79:
(drop-package t1 p1 c_20_16)
 
80:
(move t1 c_20_16 c_19_16)
 
81:
(move t1 c_19_16 c_18_16)
 
82:
(move t1 c_18_16 c_17_16)
 
83:
(move t1 c_17_16 c_16_16)
 
84:
(move t1 c_16_16 c_16_15)
 
85:
(move t1 c_16_15 c_16_14)
 
86:
(move t1 c_16_14 c_16_13)
 
87:
(move t1 c_16_13 c_16_12)
 
88:
(move t1 c_16_12 c_16_11)
 
89:
(pick-package t1 p3 c_16_11)
 
90:
(move t1 c_16_11 c_16_12)
 
91:
(drop-package t1 p3 c_16_12)
 
92:
(move t1 c_16_12 c_16_11)
 
93:
(pick-package t1 p2 c_16_11)
 
94:
(move t1 c_16_11 c_16_12)
 
95:
(move t1 c_16_12 c_16_13)
 
96:
(drop-package t1 p2 c_16_13)
 
97:
(move t1 c_16_13 c_16_12)
 
98:
(pick-package t1 p3 c_16_12)
 
99:
(move t1 c_16_12 c_16_13)
 
100:
(move t1 c_16_13 c_16_14)
 
101:
(drop-package t1 p3 c_16_14)
 
102:
(move t1 c_16_14 c_16_13)
 
103:
(pick-package t1 p2 c_16_13)
 
104:
(move t1 c_16_13 c_16_14)
 
105:
(move t1 c_16_14 c_16_15)
 
106:
(drop-package t1 p2 c_16_15)
 
107:
(move t1 c_16_15 c_16_14)
 
108:
(pick-package t1 p3 c_16_14)
 
109:
(move t1 c_16_14 c_16_15)
 
110:
(move t1 c_16_15 c_16_16)
 
111:
(move t1 c_16_16 c_17_16)
 
112:
(move t1 c_17_16 c_18_16)
 
113:
(move t1 c_18_16 c_19_16)
 
114:
(move t1 c_19_16 c_20_16)
 
115:
(drop-package t1 p3 c_20_16)
 
116:
(move t1 c_20_16 c_19_16)
 
117:
(move t1 c_19_16 c_18_16)
 
118:
(move t1 c_18_16 c_17_16)
 
119:
(move t1 c_17_16 c_16_16)
 
120:
(move t1 c_16_16 c_16_15)
 
121:
(pick-package t1 p2 c_16_15)
 
122:
(move t1 c_16_15 c_16_16)
 
123:
(move t1 c_16_16 c_17_16)
 
124:
(move t1 c_17_16 c_18_16)
 
125:
(move t1 c_18_16 c_19_16)
 
126:
(move t1 c_19_16 c_20_16)
 
127:
(drop-package t1 p2 c_20_16)
 

Plan Validation details
-----------------------

Checking next happening (time 1)
Deleting (at t1 c_14_17)
Adding (at t1 c_14_16)

Checking next happening (time 2)
Deleting (at t1 c_14_16)
Adding (at t1 c_15_16)

Checking next happening (time 3)
Deleting (at t1 c_15_16)
Adding (at t1 c_16_16)

Checking next happening (time 4)
Deleting (at t1 c_16_16)
Adding (at t1 c_16_15)

Checking next happening (time 5)
Deleting (at t1 c_16_15)
Adding (at t1 c_17_15)

Checking next happening (time 6)
Deleting (at t1 c_17_15)
Adding (at t1 c_18_15)

Checking next happening (time 7)
Deleting (at p1 c_18_15)
Deleting (empty t1)
Adding (carrying t1 p1)

Checking next happening (time 8)
Deleting (at t1 c_18_15)
Adding (at t1 c_17_15)

Checking next happening (time 9)
Deleting (at t1 c_17_15)
Adding (at t1 c_16_15)

Checking next happening (time 10)
Deleting (at t1 c_16_15)
Adding (at t1 c_16_14)

Checking next happening (time 11)
Deleting (at t1 c_16_14)
Adding (at t1 c_16_13)

Checking next happening (time 12)
Deleting (at t1 c_16_13)
Adding (at t1 c_16_12)

Checking next happening (time 13)
Deleting (at t1 c_16_12)
Adding (at t1 c_16_11)

Checking next happening (time 14)
Deleting (at t1 c_16_11)
Adding (at t1 c_16_10)

Checking next happening (time 15)
Deleting (at t1 c_16_10)
Adding (at t1 c_16_9)

Checking next happening (time 16)
Deleting (at t1 c_16_9)
Adding (at t1 c_15_9)

Checking next happening (time 17)
Deleting (at t1 c_15_9)
Adding (at t1 c_14_9)

Checking next happening (time 18)
Deleting (at t1 c_14_9)
Adding (at t1 c_13_9)

Checking next happening (time 19)
Deleting (at t1 c_13_9)
Adding (at t1 c_12_9)

Checking next happening (time 20)
Deleting (at t1 c_12_9)
Adding (at t1 c_11_9)

Checking next happening (time 21)
Deleting (carrying t1 p1)
Adding (empty t1)
Adding (at p1 c_11_9)

Checking next happening (time 22)
Deleting (at t1 c_11_9)
Adding (at t1 c_11_8)

Checking next happening (time 23)
Deleting (at t1 c_11_8)
Adding (at t1 c_11_7)

Checking next happening (time 24)
Deleting (at t1 c_11_7)
Adding (at t1 c_11_6)

Checking next happening (time 25)
Deleting (at t1 c_11_6)
Adding (at t1 c_11_5)

Checking next happening (time 26)
Deleting (at t1 c_11_5)
Adding (at t1 c_11_4)

Checking next happening (time 27)
Deleting (at t1 c_11_4)
Adding (at t1 c_11_3)

Checking next happening (time 28)
Deleting (at p3 c_11_3)
Deleting (empty t1)
Adding (carrying t1 p3)

Checking next happening (time 29)
Deleting (at t1 c_11_3)
Adding (at t1 c_11_4)

Checking next happening (time 30)
Deleting (at t1 c_11_4)
Adding (at t1 c_11_5)

Checking next happening (time 31)
Deleting (at t1 c_11_5)
Adding (at t1 c_11_6)

Checking next happening (time 32)
Deleting (at t1 c_11_6)
Adding (at t1 c_11_7)

Checking next happening (time 33)
Deleting (at t1 c_11_7)
Adding (at t1 c_11_8)

Checking next happening (time 34)
Deleting (at t1 c_11_8)
Adding (at t1 c_11_9)

Checking next happening (time 35)
Deleting (at t1 c_11_9)
Adding (at t1 c_12_9)

Checking next happening (time 36)
Deleting (at t1 c_12_9)
Adding (at t1 c_13_9)

Checking next happening (time 37)
Deleting (at t1 c_13_9)
Adding (at t1 c_14_9)

Checking next happening (time 38)
Deleting (at t1 c_14_9)
Adding (at t1 c_15_9)

Checking next happening (time 39)
Deleting (at t1 c_15_9)
Adding (at t1 c_16_9)

Checking next happening (time 40)
Deleting (carrying t1 p3)
Adding (empty t1)
Adding (at p3 c_16_9)

Checking next happening (time 41)
Deleting (at t1 c_16_9)
Adding (at t1 c_15_9)

Checking next happening (time 42)
Deleting (at t1 c_15_9)
Adding (at t1 c_14_9)

Checking next happening (time 43)
Deleting (at t1 c_14_9)
Adding (at t1 c_13_9)

Checking next happening (time 44)
Deleting (at t1 c_13_9)
Adding (at t1 c_12_9)

Checking next happening (time 45)
Deleting (at t1 c_12_9)
Adding (at t1 c_11_9)

Checking next happening (time 46)
Deleting (at p1 c_11_9)
Deleting (empty t1)
Adding (carrying t1 p1)

Checking next happening (time 47)
Deleting (at t1 c_11_9)
Adding (at t1 c_12_9)

Checking next happening (time 48)
Deleting (at t1 c_12_9)
Adding (at t1 c_13_9)

Checking next happening (time 49)
Deleting (at t1 c_13_9)
Adding (at t1 c_14_9)

Checking next happening (time 50)
Deleting (at t1 c_14_9)
Adding (at t1 c_15_9)

Checking next happening (time 51)
Deleting (at t1 c_15_9)
Adding (at t1 c_16_9)

Checking next happening (time 52)
Deleting (at t1 c_16_9)
Adding (at t1 c_16_10)

Checking next happening (time 53)
Deleting (carrying t1 p1)
Adding (empty t1)
Adding (at p1 c_16_10)

Checking next happening (time 54)
Deleting (at t1 c_16_10)
Adding (at t1 c_16_9)

Checking next happening (time 55)
Deleting (at p3 c_16_9)
Deleting (empty t1)
Adding (carrying t1 p3)

Checking next happening (time 56)
Deleting (at t1 c_16_9)
Adding (at t1 c_16_10)

Checking next happening (time 57)
Deleting (carrying t1 p3)
Adding (empty t1)
Adding (at p3 c_16_10)

Checking next happening (time 58)
Deleting (at t1 c_16_10)
Adding (at t1 c_16_9)

Checking next happening (time 59)
Deleting (at p2 c_16_9)
Deleting (empty t1)
Adding (carrying t1 p2)

Checking next happening (time 60)
Deleting (at t1 c_16_9)
Adding (at t1 c_16_10)

Checking next happening (time 61)
Deleting (at t1 c_16_10)
Adding (at t1 c_16_11)

Checking next happening (time 62)
Deleting (carrying t1 p2)
Adding (empty t1)
Adding (at p2 c_16_11)

Checking next happening (time 63)
Deleting (at t1 c_16_11)
Adding (at t1 c_16_10)

Checking next happening (time 64)
Deleting (at p3 c_16_10)
Deleting (empty t1)
Adding (carrying t1 p3)

Checking next happening (time 65)
Deleting (at t1 c_16_10)
Adding (at t1 c_16_11)

Checking next happening (time 66)
Deleting (carrying t1 p3)
Adding (empty t1)
Adding (at p3 c_16_11)

Checking next happening (time 67)
Deleting (at t1 c_16_11)
Adding (at t1 c_16_10)

Checking next happening (time 68)
Deleting (at p1 c_16_10)
Deleting (empty t1)
Adding (carrying t1 p1)

Checking next happening (time 69)
Deleting (at t1 c_16_10)
Adding (at t1 c_16_11)

Checking next happening (time 70)
Deleting (at t1 c_16_11)
Adding (at t1 c_16_12)

Checking next happening (time 71)
Deleting (at t1 c_16_12)
Adding (at t1 c_16_13)

Checking next happening (time 72)
Deleting (at t1 c_16_13)
Adding (at t1 c_16_14)

Checking next happening (time 73)
Deleting (at t1 c_16_14)
Adding (at t1 c_16_15)

Checking next happening (time 74)
Deleting (at t1 c_16_15)
Adding (at t1 c_16_16)

Checking next happening (time 75)
Deleting (at t1 c_16_16)
Adding (at t1 c_17_16)

Checking next happening (time 76)
Deleting (at t1 c_17_16)
Adding (at t1 c_18_16)

Checking next happening (time 77)
Deleting (at t1 c_18_16)
Adding (at t1 c_19_16)

Checking next happening (time 78)
Deleting (at t1 c_19_16)
Adding (at t1 c_20_16)

Checking next happening (time 79)
Deleting (carrying t1 p1)
Adding (empty t1)
Adding (at p1 c_20_16)

Checking next happening (time 80)
Deleting (at t1 c_20_16)
Adding (at t1 c_19_16)

Checking next happening (time 81)
Deleting (at t1 c_19_16)
Adding (at t1 c_18_16)

Checking next happening (time 82)
Deleting (at t1 c_18_16)
Adding (at t1 c_17_16)

Checking next happening (time 83)
Deleting (at t1 c_17_16)
Adding (at t1 c_16_16)

Checking next happening (time 84)
Deleting (at t1 c_16_16)
Adding (at t1 c_16_15)

Checking next happening (time 85)
Deleting (at t1 c_16_15)
Adding (at t1 c_16_14)

Checking next happening (time 86)
Deleting (at t1 c_16_14)
Adding (at t1 c_16_13)

Checking next happening (time 87)
Deleting (at t1 c_16_13)
Adding (at t1 c_16_12)

Checking next happening (time 88)
Deleting (at t1 c_16_12)
Adding (at t1 c_16_11)

Checking next happening (time 89)
Deleting (at p3 c_16_11)
Deleting (empty t1)
Adding (carrying t1 p3)

Checking next happening (time 90)
Deleting (at t1 c_16_11)
Adding (at t1 c_16_12)

Checking next happening (time 91)
Deleting (carrying t1 p3)
Adding (empty t1)
Adding (at p3 c_16_12)

Checking next happening (time 92)
Deleting (at t1 c_16_12)
Adding (at t1 c_16_11)

Checking next happening (time 93)
Deleting (at p2 c_16_11)
Deleting (empty t1)
Adding (carrying t1 p2)

Checking next happening (time 94)
Deleting (at t1 c_16_11)
Adding (at t1 c_16_12)

Checking next happening (time 95)
Deleting (at t1 c_16_12)
Adding (at t1 c_16_13)

Checking next happening (time 96)
Deleting (carrying t1 p2)
Adding (empty t1)
Adding (at p2 c_16_13)

Checking next happening (time 97)
Deleting (at t1 c_16_13)
Adding (at t1 c_16_12)

Checking next happening (time 98)
Deleting (at p3 c_16_12)
Deleting (empty t1)
Adding (carrying t1 p3)

Checking next happening (time 99)
Deleting (at t1 c_16_12)
Adding (at t1 c_16_13)

Checking next happening (time 100)
Deleting (at t1 c_16_13)
Adding (at t1 c_16_14)

Checking next happening (time 101)
Deleting (carrying t1 p3)
Adding (empty t1)
Adding (at p3 c_16_14)

Checking next happening (time 102)
Deleting (at t1 c_16_14)
Adding (at t1 c_16_13)

Checking next happening (time 103)
Deleting (at p2 c_16_13)
Deleting (empty t1)
Adding (carrying t1 p2)

Checking next happening (time 104)
Deleting (at t1 c_16_13)
Adding (at t1 c_16_14)

Checking next happening (time 105)
Deleting (at t1 c_16_14)
Adding (at t1 c_16_15)

Checking next happening (time 106)
Deleting (carrying t1 p2)
Adding (empty t1)
Adding (at p2 c_16_15)

Checking next happening (time 107)
Deleting (at t1 c_16_15)
Adding (at t1 c_16_14)

Checking next happening (time 108)
Deleting (at p3 c_16_14)
Deleting (empty t1)
Adding (carrying t1 p3)

Checking next happening (time 109)
Deleting (at t1 c_16_14)
Adding (at t1 c_16_15)

Checking next happening (time 110)
Deleting (at t1 c_16_15)
Adding (at t1 c_16_16)

Checking next happening (time 111)
Deleting (at t1 c_16_16)
Adding (at t1 c_17_16)

Checking next happening (time 112)
Deleting (at t1 c_17_16)
Adding (at t1 c_18_16)

Checking next happening (time 113)
Deleting (at t1 c_18_16)
Adding (at t1 c_19_16)

Checking next happening (time 114)
Deleting (at t1 c_19_16)
Adding (at t1 c_20_16)

Checking next happening (time 115)
Deleting (carrying t1 p3)
Adding (empty t1)
Adding (at p3 c_20_16)

Checking next happening (time 116)
Deleting (at t1 c_20_16)
Adding (at t1 c_19_16)

Checking next happening (time 117)
Deleting (at t1 c_19_16)
Adding (at t1 c_18_16)

Checking next happening (time 118)
Deleting (at t1 c_18_16)
Adding (at t1 c_17_16)

Checking next happening (time 119)
Deleting (at t1 c_17_16)
Adding (at t1 c_16_16)

Checking next happening (time 120)
Deleting (at t1 c_16_16)
Adding (at t1 c_16_15)

Checking next happening (time 121)
Deleting (at p2 c_16_15)
Deleting (empty t1)
Adding (carrying t1 p2)

Checking next happening (time 122)
Deleting (at t1 c_16_15)
Adding (at t1 c_16_16)

Checking next happening (time 123)
Deleting (at t1 c_16_16)
Adding (at t1 c_17_16)

Checking next happening (time 124)
Deleting (at t1 c_17_16)
Adding (at t1 c_18_16)

Checking next happening (time 125)
Deleting (at t1 c_18_16)
Adding (at t1 c_19_16)

Checking next happening (time 126)
Deleting (at t1 c_19_16)
Adding (at t1 c_20_16)

Checking next happening (time 127)
Deleting (carrying t1 p2)
Adding (empty t1)
Adding (at p2 c_20_16)
Plan executed successfully - checking goal
Plan valid
Final value: 127 

Successful plans:
Value: 127
 /home/jfan5/Safety-gen/runs/benchmark/optic/delivery_20260215_225923/delivery/optic_results/delivery_size21_packages1_seed21001.plan 127
